
 102   30
  10   10   10   10   10   10   10   10   10   10   10   10   10   10   10   10   10   10   10   10   10   10   10   10   10   10   10   10   10   10

   0   0   0   0   0   0   0   0   0   0   0   0   0   0   0   0   0   0   0   0   0   0   0   0   0   0   0   0   0   0   0  31 2 3 4 5 6 7 9 10 11 12 13 14 15 16 17 18 19 20 21 23 24 28 29 30 32 33 35 38 40 46 52 
   5   0   0   1   0   0   0   0   0   0   0   0   6   0   0   0   0   0   0   0   3   0   0   0   0   0   0   0   0   0   0   7 65 62 44 37 26 25 8 
   8   0   1   0   0   0   1   0   0   0   0   1   0   2   0   0   0   0   0   0   1   1   0   0   0   0   0   0   1   0   0  16 100 97 75 70 68 67 66 64 61 59 57 55 51 48 43 22 
  10   2   0   0   0   0   0   0   0   1   0   0   0   0   0   1   1   0   0   0   5   0   0   0   2   0   0   0   0   0   0  13 76 68 66 64 63 62 51 44 43 37 31 27 26 
   5   0   4   0   3   0   0   0   5   0   0   0   0   0   0   0   9   0   0   2   0   0   0   0   0   1   0   0   0   0   0  16 100 97 96 92 75 73 70 69 68 67 63 58 55 51 47 39 
   4   0   0   0   0   0   0   0   0   0   0   0   3   0   0   0   5   0   0   0   0   0   0   0   5   0   3   0   0   0   0  13 98 97 70 68 67 63 61 58 54 51 49 47 31 
   6   0   0   0   0   1   0   0   0   0   0   0   9   0   0   0   0   0   0   0   0   0   1   0   7   0   0   0   0   0   0  13 73 69 67 62 61 58 56 55 54 51 47 37 36 
   9   0   0   0   3   0   5   1   6   0   0   0   0   0   0   0   8   0   0   0   6   0   0   0   0   8   0   0   0   0   0  15 100 99 94 76 75 70 69 68 63 58 55 54 51 49 34 
   5   6   0   0   2  10   0   0   0   0   0   0   0   0   0   0   4   0   0   0   0   0   0   0   0   0   0   0   0   0   0  10 101 97 76 64 61 56 54 49 42 25 
   7   0   0   0   7   0   0   6   0   0   0   0   0   0   0   0   0   0   0   0   0   6   0   0   0   0   0   0   0   0   0  19 100 99 97 95 92 88 75 73 72 70 69 68 67 65 60 53 51 50 47 
  10   6   0   0   0   0   0   0   0   0   0   0   2   0   0   0   0   0   0   0   0   0   9   0   0   0   4   0   0   0   0  16 100 99 97 76 70 69 66 65 62 61 60 56 53 51 49 45 
  10   0   0   0   0   0   0   5   0   0   0   0   0   0   0   0   5   0   0   0   4   0   0   0   0   0   0   0   0   0   3  14 99 97 96 94 76 74 67 61 60 55 49 45 44 43 
   9   7   0   0   0   0   0   0   0   0   0   0   0   0   0   0   0   0   0   0   0   0   0   0   0   0   0   0   5   0   0  15 100 99 98 97 96 76 75 70 68 67 55 53 51 49 45 
   7  10   0   0   0   0   0   1   0   0   0   0   0   0   0   0   0   1   0   0   0   0   0   0   0   0   7   0   0   2   0  14 99 97 96 95 75 70 67 64 60 55 54 53 51 43 
   7   0   0   0   7   8   0   0   0   0   0   0   0   0   0   0   0   0   0   0   8   0   0   0   4   0   0   3   6   0   7  12 97 91 76 75 74 69 68 64 61 49 45 42 
   9   0   0   0   0   0   0   0   0   9   0   0  10   4   1   0   0   0   0   0   0   0   5   1   0   6   0   0   0   0   0  19 101 99 98 97 96 95 92 91 88 75 74 73 71 70 69 68 64 62 60 
   2   0   0   0   0   0   0   7   0   0   0   0   0   9   0   0   0   0   0   0   9   0   0   0   0   0   0   0   8   4   0  14 101 100 98 97 96 92 75 74 73 69 64 56 49 44 
   8   0   0   0   0   0   0   0  10   9   2   0   0   0   0   0   0   0   1   0   0   0   0   0   0   0   0   0   0   0   0   9 97 95 94 92 65 60 51 43 42 
   2   0   0   0   0   0   0   0   0   0   0   0   0   0   9   7   0   0   0   0   0   0   0   0   0   0   0   0   0   0   0   8 76 75 74 64 63 60 45 37 
   5   0   0   0   0   0   0   0   0   8   0   0   0   6   0   0   0   0   0   2   0   0   0   0   0   0   0   0   0   0   0  14 97 96 93 76 75 73 70 69 68 60 58 56 54 53 
   2   0   0   0   0   0   0   0   0   0   0   0   0   0   0   0   0   0   0   0   0   0   8   0   0   0   0   0   0   0   0  12 98 94 92 91 76 71 70 62 60 58 49 42 
   4   0   0   0   0   0   0   0   0   0   0   0   0   0   0   6   0   4   0   0   0   0   0   0   8   0   0   0   0   0   0  10 99 96 95 94 76 71 69 65 45 41 
   2   0   0   0   0   6   0   0   0   0   0   0   8   0   0   0   0   0   0   0   7   0   8   0   8   0   0   0   0   0   0  15 99 98 96 92 86 76 75 73 71 70 69 62 58 55 51 
   9   0   0   0   0   0   0   0   0   0   8   0   0   0   0   0   0   0   5   0   0   0   0   0   0   0   0   0   0   0   0  14 98 97 96 95 93 91 83 76 74 73 64 58 54 53 
  10   0   0   0   0   0   0   0   0   0   0   6   0   0   0   4   0   0   0   0   0   0   0   0   0   0   0   0   0   0   0  11 100 99 92 75 73 72 67 63 55 53 51 
   9   9   0   0   0   0   0   0   0   0   0   8   0   0   0   0   0   0   0   0   0   0   6   0   0   0   0   0   0   0   0   9 96 95 94 93 91 75 60 53 45 
   6   0   0   0   6   0   0   0   0   0   0   0   0   0   0   8   0   0   0   0   8   0   0   0  10   6   0   0   0   0   0  13 99 97 96 94 93 89 85 75 74 73 69 61 54 
   3   0   0   0   0   0   0   0   0   0   8   0   0   0   5   0   0   0   0   0   0   9   0   0   3   0   0   0   7   0   0  10 98 97 93 92 90 88 72 53 51 49 
   2   0   0   0   8   0   0   0   0   0   6   0   5   0   0   0   0   0   0   0   0   0   0   0   0   0   0   0   0   0   0  14 99 98 97 96 94 93 85 83 82 73 72 70 69 54 
   1   0   0   7   0   0   0   0   0   0   0   0   0   0   0   5   0   0   0   0   0   5   0   0   0   0   0   0  10   0   0  10 96 93 89 88 83 75 72 54 53 51 
   4   0   0   0   0   0   0   0   0   0   9   0   0   0   0   6   0   0   0   0   0   0   0   0   0   0   0   0   0   0   0  11 100 99 96 94 92 88 75 74 73 55 53 
   2   0   0   0   0   0   0   0   5   0   6   0   0   0   0   0   0   0   0   0   5   0   0   0   0   0   0   0   0   5   5  14 98 97 95 94 93 92 90 89 88 84 83 75 72 53 
   4   0   9   8   5   0   0   0   0   0   7   0   0   0   0   0   4   0   0   0   0   0   0   0   0   0   0   0   0   0   0  14 99 97 95 94 92 91 90 85 84 81 80 74 73 61 
   6   0   0   0   0   0   0   0   0   7   0   0   0   0   7   0   0   7   7   0   0   0   0   0   5   0   0   0   0   0   0  11 98 97 96 93 91 88 84 79 73 67 53 
   6   0   0   0   0   0   0   0   0   0   0   0   0   0   0   7   0   4   0   0   0   0   0   0   0   0  10   0   0   0   0   9 93 87 81 75 74 72 71 60 56 
   3   0   0   0   0   0   0   0   0   0   0   0   0   0   0   0   0   0   0   0   0   0   0   0   0   0   0   0   0   0   0  16 99 98 97 96 95 91 90 88 85 84 82 81 78 75 74 72 
   3   0   0   0   0   0   0   0   0   0   0   0   0   0   0   0   0   0   0   0   0   0   0   0   0   0   0   4   0   3   0  10 97 96 95 94 93 89 79 72 71 53 
  10   0   0   0   0   0   0   0   5   0   0   0   0   6   0   0   0   0   0   0   0   0   7   0   0   0   3   0   7   0   0  10 97 92 91 90 89 84 83 75 74 53 
   1   0   0   0  10   0   0   0   0   0   0   0   0   0   0   0   0   0   0   0   0   0   0   0   4   0   0   0   0   4   5   8 99 98 88 84 79 62 53 49 
   8   0   0   0   0   0   0   0   0   0   0   8   0   0   0   0   0   0   0   6   0   0   8   0   0   0   0   0   0   0   9   8 91 88 87 85 76 71 60 54 
   8   0   0   0   0   0   0   0   0   0   0   0   0   0   0   0   0   0   0   0   0   0   0   0   0   0   0   7   0   0   0   8 98 91 88 83 79 73 60 53 
   6   0   0   0   0   0   0   0   0   6   0   8   0   0   0   0   4   0   8   0   0   0   8   6   4   0   0   0   0   5   0   7 96 90 88 79 72 55 53 
   9   0   4   0   0   0   0   0   8   0   0   0   0   0   0   0   0   0   0   0   0   0   0   0   0   6   0   0   0   0   0  10 98 91 88 84 83 78 77 73 72 69 
   3   0   0   6   0   0   0  10   0   3   8   0   0   0   0   0   0   0   0   0   0   0   0   0   0   0   0   0   0   0   0   6 95 91 90 88 79 53 
   4   5   0   6   0   0   0   0   0   0   0   0   6   0   0   0   0   0   0   0   0   0   0   0   0   0   0  10   0   0   7   5 88 83 73 72 54 
   4   0   0   5   0   0   8   0   0   0   0   0   0   0   0   0   0   0   0   0   0   0   0   0   0   0   5   0   5  10   0   5 93 88 84 83 53 
   6   0   0   0   0   0   0   0   2   0   0   0   0   0   0   0   0   0   0   0   0   0   0   0   0   7   0   0   0   0   6  10 94 91 90 89 86 81 80 77 76 74 
  10   0   0   0   0   0   0   0   0   0   5   0   0   0   0   0   0   0   0   0   0   0   0   0   0   0   0   0   0   0   0  11 95 86 85 84 83 82 81 80 79 78 77 
   2   0   7   0   0   4   0   0   0   0   0   4   0   0   0   0   0   5   0   0   0   0   0   0   0   0   0   9   0   0   0  10 95 89 87 85 83 82 81 80 78 77 
  10   0   6   0   0   6   0   0   0   5   0   0   0   0   8   0   0   0   0   0   0   0   0   6   0   0   0   0   0   0   4  10 98 93 90 89 85 84 83 81 78 77 
   1   9   0   0   7   0   0   0   0   0   0   0   0   0   0   0   0   0   0   0   0   0   0   6   1  10   0   0   0   0   0   8 91 85 84 82 81 78 77 74 
   8   0   0   0   0   0   0   0   0   0   0   0   0   0   7   0   0   0   0   0   0   0   0   0   0   0   0   0   7   0   0   8 94 92 90 88 86 85 78 75 
   1   0   0   0   0   0   0   0   0   0   0   0   0   0   0   0   0   0   0   0   0   0   0   0   0   0   0   5   0   6   0   8 87 86 85 82 81 80 78 77 
   3   0   0   0   0   0   0   0   0   0   0   0   0   0   0   0   0   0   0  10   0   0   0   0   0   0   0   0   0   0   0   8 92 90 86 84 80 79 78 77 
   7   0   0   0   0   0   0   0   0   0   0   0   0   4   0   5   7   0   0   0  10   6   0   4   0   0   0   8   0   0   3   8 93 87 85 84 83 81 78 77 
  10   0   0   3   0   0   0   0   0   0   0   0   4   0   0   0   5   0   0   0   0   0   0   7   0   0   0   0   0   4   0   8 94 91 84 83 82 79 78 77 
   1   5   0   0   0   0   0   0   0   0   0   0   0   0   9   0   5   0   0   0   0   0   0   0   0   0   0   0   0   0   0   7 93 85 84 82 80 79 77 
   3   7   0   5   6   0   6   0   0   0   4   0   0   0   0   0   0   0   0   0   0   0   0   0   0   0   0   0   0   0   0   6 89 88 82 78 77 72 
   3   0   0   0   0   0   6   0   0   0   0   7   0   0   0   0   0   8   7   0   0   0   0   0   0   0   6   6   0   0   0   6 91 88 86 85 77 72 
   5   0   0   0   0   0   0   0   7   0   4   0   0   0   0   0   0   0   0   0   0   0   0   0   0   0   0   0   0   0   0   6 89 86 84 82 78 77 
   5   0   0   0   0   0   0   0   0   0   0   0   0   0   0   0   0   0   0   0   0   0   6   0   0   0   0   0   0   0   0   6 88 83 82 79 78 77 
   2   0   0   0   0   0   0   0   0   0   0   0   0   0   0   0   0   0   0   0   0   0   8  10   0   0   0   0   0   0   7   6 89 87 85 83 81 77 
   4   0   0   0   6   0   0   0   0   0   0   0   0  10   0   0   0   0   0   8   0   0   0   0   0   0   0   0   0   5   0   5 95 84 81 79 77 
   5   0   5   0   0   0   0   0   4   0   0   4   0   0   0   0   0   0   0   0   0   0   0   0   0   0   0   0   0   0   0   4 94 82 79 72 
   7   4   0   0   0   0   0   0   0   0   0   0   0   0   0   0   6   0   0   0   0   0   0   0   0   0   9   0   0   0   0   4 89 81 78 77 
   5   0   0   7   6   0   0   0   0   0   0   0   0   0   0   6   0   5   7   0   0   0   0   0   9   0   0   2   0   0   0   4 91 83 80 78 
   3   0   0   0   0   0   0   8   5   0   0   6   0   0   4   0   0   0   0   0   0   9   0   0   0   4   0   0   0   0   0   3 90 89 78 
   3   0   8   0   0   0   0   0   0   0   0   0   0   0   0   0   0   0   0   0   0   0   0   0   0   0   0   0   0   0   0   3 83 79 78 
   7   0   0   0   0   0   0   0   0   0  10   6   7   0   6   0   0   0   0   0   0   0   0   0   0   0   3   0   3   7   0   2 81 79 
   8   0   0   0   8   0   0   0   0   0   0   0   0   0   0   0   0   0   0   7   0   0   0   0   0   0   7   0   0  10   0   2 79 77 
   1   0   0   0   0   0   0   0   0   0   0   0   0   0   3   0   1   0   0   0   0   0   0   0   0   0   0   0   0   0   0   2 83 78 
  10   0   0   0   0   0   0   0   0   0   9   4   0   6   0   0   0   0   0   0   0   6   0   0   0   0   0   0   0   0   0   1 80 
   6   0   0   8   0   0   0   0   0   0   0   0   0   0   0   0   0   0   5   0   0   6   0   7   9   0   0   0   0   0   0   1 87 
  10   0   0   0   0   0   0   0   0   0   0   0   0   0   0   0   0   0   0   0   0   0   0   0   0   0   0   0   0   0   0   1 79 
   9   3   0   0   0   3   0   0   0   0   3   0   0   0   0   0  10   0   0   5   0   0   0   0   0   0   5   0   0   0   0   1 77 
   5   0   0   0   0   0   0   0   0   0   0   0   0   0   0   0   0   0   0   0   0   0   0   0   0   0   4   0   0   0  10   1 78 
   2   0   0   0   0   0   0   0   0   0   3   0   0   0   0   0   0  10   0   0   0   0   7   0   0   0   6   0   0   0   0   1 102
   8   0   0   7   0   0   6   0   0   0   0   0   0   6   0   0   0   0   0   0   0   0   0   0   0   0   3   5   0   0   0   1 102
   6   0   0   0   0   0   0   0   0   0   0   0   0   0   0   0   0   0   0   0   0   0   0   0   0   3   0   0   0   0   0   1 102
   2   0   0   0   6   0   0   6   0   0   0   0   0   0   0   0   0   0   0   0   0   0   0   5   0   0   0   0   0   4   0   1 102
  10   0   0   0   0   0   0  10   0   0   0   0   3   7   0   0  10   0   0   0   0   0   0   0   0   0   0   0   0   0   0   1 102
   2   0   0   0   0   0   0   0   0   0   7   8   0   0   0   0   0   0   0   0   0   0   0   0   0   0   0   0   0   8   0   1 102
  10   0   0   0   0   0   0   4   0   0   7   0   0   0   0   0   0   0   0   6   6   0   3   0   0   0   0   9   0   0   0   1 102
  10   0   0   9   0   0   0   0   0   0   0   0   0   6   0   8   0   0   0   0   0   0   0   0   0   9   7   0   7   6   0   1 102
   5   0   0   0   0   0   0   0   0   0   0   0   0   0   0   0   0   0   0   0   0   0   0   0   0   0   0   0   0   0   0   1 102
   3   5   0   0   0   0   0   0   0   0   0   0   0   0   0   0   0   0   0   0   0   0   0   7   0   0   0   0   0   6   0   1 102
   8   0   8   0   0   0   0   0   0   0   0   0   0   0   0   0   0   0   0   0   4   0   0   6   0   0   0   4   0   9   0   1 102
   9   0   0   6   0   0   0   0   0   0   0  10   0   0   7   0   0   7   0   0   0   0   0   0   0   0   0   0   0   0   0   1 102
   9   0   0   0   0  10   0   0   0   0   0   4   0   0   0   0   0   0   0   0   0   0   3   0   0   0  10   0   0   0   0   1 102
   5   0   8   0   0   0   0   4   0   0   0   0   0   0   0   0   9   0   0  10   0   0   0   0   0   0   8   0   0   0   6   1 102
   5   0   0   0   0   0   8   0   0   0   6   0   0   0   0   0   0   0   0   0   0   0   0   0   7   0   0   0   0  10   0   1 102
   2   0   0   0   0   0   0   0   0   0   0   8   7   0   0   0   9   0   0   0   0   4   0   0   0   0   0   0   0   0   0   1 102
   9   0   0   0   6   0   8   0   0   0   0   0   0   0   0   7   0   0   0   0   0   7   3   0   0   0   0   0   0   0   0   1 102
   9   0   0   0   0   0   0   0   0   0   0   4   0   0   0   0   0   0   0   0   0   0   0   0   0   0   0   0   7   0   0   1 102
   8   6   0   0   0   0   0   0   0   0   3   0   0   0   0   0   0   0   0   5   0   0   0   0   0   0   8   0   0   0   0   1 102
  10   0   0   0   0   0   0   0   5   0   0   0   0   0   0   0   0   0   0   5   0   7   0   0   0   0   0   0   0   0   0   1 102
   1   0   0   0   0   0   0   0   8   0   0   7   6   0   0   8   0   0   8   0   6   0   0   0   0   0   0   0   0   0   0   1 102
   2   0   0   0   0   0   0   0   0   0   5   0   0   0   0   0   0   0   0   0   0   0   0   0  10   0   0   0   0   0   0   1 102
   1   0   0   0   0   0   0   0   8   0   0   5   8   0   0   0   0   7   0   0   0   0   0   0   0   0   0   0   9   0   0   1 102
   7   0   0   0   0   0   0   0   0   0   0   0   0   0   0   0   0   9   0   0   0   0   0   7   0   0   0   0   0   0   0   1 102
   4   0   0   0   0   0   0  10   0   0   0   0   0   0   0   0   0   5   0   0   8   0   0   0   0   0   0   0   2   0   0   1 102
   0   0   0   0   0   0   0   0   0   0   0   0   0   0   0   0   0   0   0   0   0   0   0   0   0   0   0   0   0   0   0   0 
